Route #1: 1 20 25 44 53 27 55 6 47 1
Route #2: 1 29 35 28 66 56 61 48 1
Route #3: 1 8 32 19 54 3 65 62 22 5 15 58 1
Route #4: 1 43 26 64 12 38 51 17 49 2 1
Route #5: 1 59 67 24 31 52 4 16 45 1
Route #6: 1 68 34 50 10 7 46 36 14 30 1
Route #7: 1 23 13 69 42 21 60 9 41 11 1
Route #8: 1 63 57 40 39 1
Route #9: 1 33 18 37 1
cost 1415.0744753187469
